p cnf 112 396
1 2 -3 0
-1 -2 -3 0
1 -2 3 0
-1 2 3 0
3 1 -4 0
-3 -1 -4 0
3 -1 4 0
-3 1 4 0
7 -5 0
7 -6 0
5 6 -7 0
-8 -5 0
-8 7 0
5 -7 8 0
-10 -2 0
-10 -9 0
2 9 10 0
11 12 -13 0
-11 -12 -13 0
11 -12 13 0
-11 12 13 0
15 -13 0
15 14 0
13 -14 -15 0
16 10 0
16 -15 0
-10 15 -16 0
-17 8 0
-17 16 0
-8 -16 17 0
-5 18 0
5 18 0
-19 -11 0
-19 16 0
11 -16 19 0
20 -2 -21 0
-20 2 -21 0
20 2 21 0
-20 -2 21 0
21 -12 -22 0
-21 12 -22 0
21 12 22 0
-21 -12 22 0
25 24 0
25 -12 0
-24 12 -25 0
23 25 -26 0
-23 -25 -26 0
23 -25 26 0
-23 25 26 0
-22 -26 -27 0
22 26 -27 0
-22 26 27 0
22 -26 27 0
-19 27 -28 0
19 -27 -28 0
-19 -27 28 0
19 27 28 0
-29 -28 0
-29 14 0
28 -14 29 0
18 29 -30 0
-18 -29 -30 0
18 -29 30 0
-18 29 30 0
-31 30 0
-31 -16 0
-30 16 31 0
-17 -31 -32 0
17 31 -32 0
-17 31 32 0
17 -31 32 0
4 -32 -33 0
-4 32 -33 0
4 32 33 0
-4 -32 33 0
34 23 0
34 14 0
-23 -14 -34 0
36 34 0
36 -35 0
-34 35 -36 0
37 33 0
37 36 0
-33 -36 -37 0
-38 14 0
-38 -22 0
-14 22 38 0
39 -38 0
39 38 0
-40 -20 0
-40 39 0
20 -39 40 0
11 -6 -41 0
-11 6 -41 0
11 6 41 0
-11 -6 41 0
-14 41 -42 0
14 -41 -42 0
-14 -41 42 0
14 41 42 0
-43 -41 0
-43 -42 0
41 42 43 0
41 43 -44 0
-41 -43 -44 0
41 -43 44 0
-41 43 44 0
-44 7 -45 0
44 -7 -45 0
-44 -7 45 0
44 7 45 0
40 45 -46 0
-40 -45 -46 0
40 -45 46 0
-40 45 46 0
-47 41 0
-47 -14 0
-41 14 47 0
47 35 -48 0
-47 -35 -48 0
47 -35 48 0
-47 35 48 0
-49 48 0
-49 -6 0
-48 6 49 0
-50 46 0
-50 49 0
-46 -49 50 0
-51 16 0
-51 -50 0
-16 50 51 0
-52 2 0
-52 -24 0
-2 24 52 0
52 44 -53 0
-52 -44 -53 0
52 -44 53 0
-52 44 53 0
-54 27 0
-54 -53 0
-27 53 54 0
-55 51 0
-55 54 0
-51 -54 55 0
10 42 -56 0
-10 -42 -56 0
10 -42 56 0
-10 42 56 0
57 48 0
57 9 0
-48 -9 -57 0
58 -9 0
58 57 0
9 -57 -58 0
-59 -56 0
-59 -58 0
56 58 59 0
60 -58 0
60 2 0
58 -2 -60 0
62 3 0
62 -61 0
-3 61 -62 0
63 60 0
63 -62 0
-60 62 -63 0
64 -59 0
64 -63 0
59 63 -64 0
55 64 -65 0
-55 -64 -65 0
55 -64 65 0
-55 64 65 0
-37 -65 -66 0
37 65 -66 0
-37 65 66 0
37 -65 66 0
-67 22 0
-67 -34 0
-22 34 67 0
-68 -67 0
-68 48 0
67 -48 68 0
68 35 -69 0
-68 -35 -69 0
68 -35 69 0
-68 35 69 0
-70 56 0
-70 -48 0
-56 48 70 0
11 -61 -71 0
-11 61 -71 0
11 61 71 0
-11 -61 71 0
-71 19 -72 0
71 -19 -72 0
-71 -19 72 0
71 19 72 0
70 72 -73 0
-70 -72 -73 0
70 -72 73 0
-70 72 73 0
-2 50 -74 0
2 -50 -74 0
-2 -50 74 0
2 50 74 0
75 43 0
75 58 0
-43 -58 -75 0
-76 9 0
-76 -67 0
-9 67 76 0
77 -75 0
77 76 0
75 -76 -77 0
-78 74 0
-78 -77 0
-74 77 78 0
-79 -73 0
-79 78 0
73 -78 79 0
69 79 -80 0
-69 -79 -80 0
69 -79 80 0
-69 79 80 0
-81 3 0
-81 20 0
-3 -20 81 0
82 -44 0
82 61 0
44 -61 -82 0
83 -81 0
83 -82 0
81 82 -83 0
-84 -10 0
-84 -25 0
10 25 84 0
-85 -18 0
-85 -84 0
18 84 85 0
-60 1 -86 0
60 -1 -86 0
-60 -1 86 0
60 1 86 0
87 -85 0
87 -86 0
85 86 -87 0
88 35 0
88 -9 0
-35 9 -88 0
-87 88 -89 0
87 -88 -89 0
-87 -88 89 0
87 88 89 0
-90 28 0
-90 1 0
-28 -1 90 0
-48 -12 -91 0
48 12 -91 0
-48 12 91 0
48 -12 91 0
-92 -34 0
-92 9 0
34 -9 92 0
92 -93 0
-92 -93 0
94 38 0
94 93 0
-38 -93 -94 0
91 -94 -95 0
-91 94 -95 0
91 94 95 0
-91 -94 95 0
90 95 -96 0
-90 -95 -96 0
90 -95 96 0
-90 95 96 0
97 61 0
97 -7 0
-61 7 -97 0
67 -43 -98 0
-67 43 -98 0
67 43 98 0
-67 -43 98 0
76 98 -99 0
-76 -98 -99 0
76 -98 99 0
-76 98 99 0
-97 -99 -100 0
97 99 -100 0
-97 99 100 0
97 -99 100 0
-101 -5 0
-101 -11 0
5 11 101 0
-102 -100 0
-102 -101 0
100 101 102 0
-103 -96 0
-103 -102 0
96 102 103 0
-89 103 -104 0
89 -103 -104 0
-89 -103 104 0
89 103 104 0
83 -104 -105 0
-83 104 -105 0
83 104 105 0
-83 -104 105 0
106 22 0
106 -35 0
-22 35 -106 0
108 43 0
108 107 0
-43 -107 -108 0
109 -106 0
109 -108 0
106 108 -109 0
-110 -105 0
-110 109 0
105 -109 110 0
-80 -110 -111 0
80 110 -111 0
-80 110 111 0
80 -110 111 0
112 66 0
112 111 0
-66 -111 -112 0
-84 -36 107 -74 0
80 -43 -52 -28 -33 24 0
-81 -9 21 -43 0
51 79 -36 -28 0
11 -94 -47 0
-9 111 -31 44 19 15 0
57 44 0
23 27 -19 -86 75 -88 0
-59 -65 92 -100 0
35 63 44 0
-13 -71 -75 104 8 1 0
-108 49 -74 107 -29 0
-12 -46 -17 -103 0
43 36 -18 49 0
58 50 105 52 0
2 88 0
-52 5 82 60 98 0
-63 -44 -81 -29 0
-73 82 38 103 77 57 0
68 -78 63 0
-44 94 -80 -76 56 0
-31 -5 68 -26 0
-67 -85 -6 30 -28 -108 0
89 -22 -85 0
-52 -82 32 -8 0
-34 88 -14 0
38 99 45 0
99 55 0
65 -16 -110 104 -54 0
-45 -66 -12 -106 -57 54 0
-50 -106 -37 88 0
-20 -31 0
-42 -46 0
26 -10 -22 -78 -11 -72 0
23 37 -69 -86 0
73 -100 0
29 62 109 97 0
-12 71 -84 0
3 31 14 0
-43 -27 -96 0
49 33 -47 -99 87 30 0
37 35 111 14 -101 0
14 25 -44 0
-5 55 -76 -73 83 51 0
-59 98 -44 0
10 71 34 0
21 63 30 -12 0
5 -110 -104 0
53 -70 -55 0
10 -38 0
47 46 30 0
-81 17 0
-48 -97 0
-72 1 79 96 -59 0
-44 -110 -64 86 -94 0
107 -70 65 76 10 2 0
-78 -105 -34 15 0
61 -106 9 -49 -66 83 0
-72 65 99 24 -103 0
-15 -101 99 -104 -76 -63 0
78 -16 -25 -59 0
70 -29 -42 43 27 -33 0
30 80 31 78 0
-72 -78 39 30 103 0
31 -54 24 0
-36 -106 0
112 0
